796304
267981
74757
883311
949832
940768
702474
242042
197883
296258
129066
689215
264501
471133
801387
470066
777722
889475
513830
993638
131592
329555
399369
245481
252481
80573
733316
989529
352781
928299
694735
758504
526933
187497
277845
493445
74643
987920
627589
644944
965303
952723
89790
190418
807205
44672
364651
559748
518404
156348
514876
38561
625285
477398
542657
643206
382568
893700
334140
792821
874245
565664
816392
707025
644617
328022
851349
963053
368984
439757
972454
618084
656605
643051
767302
916528
957411
402716
419784
62493
676473
900030
526608
849690
950310
609775
20007
949144
88089
89561
861245
908346
176625
165737
748782
916603
228226
733811
862061
441102
